NAME : rnd89_20.tsp
TYPE : TSP
DIMENSION : 20
EDGE_WEIGHT_TYPE : EUC_2D
NODE_COORD_SECTION
0 599 808
1 861 947
2 305 427
3 375 14
4 124 789
5 925 592
6 61 460
7 615 97
8 206 538
9 547 841
10 859 147
11 574 620
12 24 381
13 404 996
14 593 257
15 506 23
16 396 860
17 252 203
18 36 640
19 490 868
